Route #1: 
Route #2: 6 9 34 4 22 21 33 29 14 11 42 15 32
Route #3: 3 39
Route #4: 1 8 24 26 13 27 35 25 44 18 38 31 12 41 19 28 30 10
Route #5: 16 23 17 37 5 40 43
Route #6: 20 36 2 45 7
cost 1439.729791811041
